%SETS
JOBS     = 1..20;
MACHINES = 1..10;
SPEED    = 5;

time        = array3d(JOBS,MACHINES,1..SPEED,[14, 5, 3, 3, 2, 34, 11, 8, 7, 6, 18, 6, 4, 3, 3, 22, 7, 5, 4, 4, 26, 9, 6, 5, 4, 119, 41, 29, 24, 21, 44, 15, 10, 9, 7, 13, 4, 3, 2, 2, 54, 18, 13, 10, 9, 44, 15, 11, 9, 8, 1, 1, 1, 1, 1, 32, 11, 8, 6, 5, 41, 14, 10, 8, 7, 34, 11, 8, 7, 6, 31, 11, 7, 6, 5, 20, 6, 4, 4, 3, 3, 1, 1, 1, 1, 81, 28, 20, 16, 14, 13, 4, 3, 2, 2, 6, 2, 1, 1, 1, 32, 11, 8, 6, 5, 133, 46, 32, 27, 23, 7, 2, 1, 1, 1, 28, 9, 7, 5, 5, 23, 8, 5, 4, 4, 32, 11, 8, 6, 5, 71, 24, 17, 14, 12, 11, 3, 2, 2, 2, 7, 2, 1, 1, 1, 13, 4, 3, 2, 2, 35, 12, 8, 7, 6, 33, 11, 8, 6, 5, 13, 4, 3, 2, 2, 117, 40, 28, 23, 21, 15, 5, 3, 3, 2, 12, 4, 2, 2, 2, 32, 11, 7, 6, 5, 2, 1, 1, 1, 1, 13, 4, 3, 2, 2, 38, 13, 9, 7, 6, 37, 12, 9, 7, 6, 8, 2, 2, 1, 1, 5, 1, 1, 1, 1, 16, 5, 4, 3, 2, 10, 3, 2, 2, 1, 34, 11, 8, 6, 6, 5, 1, 1, 1, 1, 10, 3, 2, 2, 1, 48, 16, 11, 9, 8, 24, 8, 6, 5, 4, 56, 19, 13, 11, 10, 97, 33, 23, 19, 17, 46, 16, 11, 9, 8, 5, 1, 1, 1, 1, 24, 8, 6, 5, 4, 16, 5, 4, 3, 3, 13, 4, 3, 2, 2, 35, 12, 8, 7, 6, 45, 15, 11, 9, 8, 29, 10, 7, 6, 5, 3, 1, 1, 1, 1, 31, 10, 7, 6, 5, 1, 1, 1, 1, 1, 5, 1, 1, 1, 1, 66, 23, 16, 13, 12, 13, 4, 3, 2, 2, 4, 1, 1, 1, 1, 29, 10, 7, 6, 5, 4, 1, 1, 1, 1, 27, 9, 6, 5, 4, 7, 2, 1, 1, 1, 1, 1, 1, 1, 1, 82, 28, 20, 16, 14, 1, 1, 1, 1, 1, 18, 6, 4, 3, 3, 10, 3, 2, 2, 1, 27, 9, 6, 5, 5, 48, 16, 11, 9, 8, 23, 8, 5, 4, 4, 22, 7, 5, 4, 4, 3, 1, 1, 1, 1, 32, 11, 7, 6, 5, 5, 2, 1, 1, 1, 17, 6, 4, 3, 3, 1, 1, 1, 1, 1, 9, 3, 2, 1, 1, 51, 17, 12, 10, 9, 21, 7, 5, 4, 3, 20, 7, 5, 4, 3, 11, 4, 2, 2, 2, 45, 15, 11, 9, 8, 8, 2, 2, 1, 1, 3, 1, 1, 1, 1, 21, 7, 5, 4, 3, 8, 2, 1, 1, 1, 38, 13, 9, 7, 6, 5, 1, 1, 1, 1, 39, 13, 9, 8, 7, 24, 8, 5, 4, 4, 1, 1, 1, 1, 1, 21, 7, 5, 4, 3, 28, 9, 6, 5, 5, 72, 24, 17, 14, 12, 39, 13, 9, 8, 7, 35, 12, 8, 7, 6, 17, 6, 4, 3, 3, 1, 1, 1, 1, 1, 43, 15, 10, 8, 7, 1, 1, 1, 1, 1, 20, 7, 5, 4, 3, 21, 7, 5, 4, 3, 3, 1, 1, 1, 1, 1, 1, 1, 1, 1, 22, 7, 5, 4, 3, 17, 5, 4, 3, 3, 9, 3, 2, 1, 1, 1, 1, 1, 1, 1, 26, 8, 6, 5, 4, 3, 1, 1, 1, 1, 1, 1, 1, 1, 1, 8, 2, 2, 1, 1, 9, 3, 2, 1, 1, 5, 1, 1, 1, 1, 1, 1, 1, 1, 1, 39, 13, 9, 7, 7, 13, 4, 3, 2, 2, 7, 2, 1, 1, 1, 19, 6, 4, 3, 3, 7, 2, 1, 1, 1, 49, 17, 12, 10, 8, 17, 5, 4, 3, 3, 25, 8, 6, 5, 4, 93, 32, 22, 19, 16, 11, 3, 2, 2, 2, 6, 2, 1, 1, 1, 99, 34, 24, 20, 17, 22, 7, 5, 4, 4, 103, 35, 25, 21, 18, 89, 30, 21, 18, 16, 31, 10, 7, 6, 5, 1, 1, 1, 1, 1, 24, 8, 6, 4, 4, 7, 2, 1, 1, 1, 3, 1, 1, 1, 1, 11, 4, 2, 2, 2, 5, 1, 1, 1, 1, 37, 12, 9, 7, 6, 70, 24, 17, 14, 12, 1, 1, 1, 1, 1, 7, 2, 1, 1, 1, 8, 2, 1, 1, 1, 3, 1, 1, 1, 1, 78, 27, 19, 15, 14, 7, 2, 1, 1, 1, 11, 3, 2, 2, 2, 1, 1, 1, 1, 1, 7, 2, 1, 1, 1, 55, 19, 13, 11, 9, 86, 29, 21, 17, 15, 27, 9, 6, 5, 4, 9, 3, 2, 1, 1, 1, 1, 1, 1, 1, 51, 17, 12, 10, 9, 4, 1, 1, 1, 1, 8, 2, 1, 1, 1, 20, 7, 5, 4, 3, 7, 2, 1, 1, 1, 48, 16, 11, 9, 8, 18, 6, 4, 3, 3, 17, 5, 4, 3, 3, 60, 21, 14, 12, 10, 63, 22, 15, 12, 11, 7, 2, 1, 1, 1, 1, 1, 1, 1, 1, 28, 9, 7, 5, 5, 8, 2, 1, 1, 1, 1, 1, 1, 1, 1, 2, 1, 1, 1, 1, 14, 4, 3, 2, 2, 3, 1, 1, 1, 1, 6, 2, 1, 1, 1, 35, 12, 8, 7, 6, 15, 5, 3, 3, 2, 3, 1, 1, 1, 1, 6, 2, 1, 1, 1, 68, 23, 16, 14, 12, 1, 1, 1, 1, 1, 26, 9, 6, 5, 4, 26, 9, 6, 5, 4, 29, 10, 7, 6, 5, 22, 7, 5, 4, 4, 39, 13, 9, 8, 7, 44, 15, 10, 9, 8, 26, 9, 6, 5, 4, 5, 1, 1, 1, 1, 33, 11, 8, 6, 6, 8, 2, 2, 1, 1, 47, 16, 11, 9, 8, 21, 7, 5, 4, 3, 2, 1, 1, 1, 1]);
energy      = array3d(JOBS,MACHINES,1..SPEED,[86, 95, 97, 97, 98, 71, 89, 92, 93, 94, 83, 94, 96, 97, 97, 80, 93, 95, 96, 96, 77, 91, 94, 95, 96, 30, 66, 74, 78, 81, 64, 86, 90, 91, 93, 87, 96, 97, 98, 98, 58, 83, 87, 90, 91, 64, 86, 89, 91, 92, 99, 99, 99, 99, 99, 72, 89, 92, 94, 95, 66, 86, 90, 92, 93, 71, 89, 92, 93, 94, 73, 89, 93, 94, 95, 81, 94, 96, 96, 97, 97, 99, 99, 99, 99, 44, 75, 81, 85, 86, 87, 96, 97, 98, 98, 94, 98, 99, 99, 99, 72, 89, 92, 94, 95, 26, 63, 72, 76, 79, 93, 98, 99, 99, 99, 75, 91, 93, 95, 95, 79, 92, 95, 96, 96, 72, 89, 92, 94, 95, 49, 78, 84, 86, 88, 89, 97, 98, 98, 98, 93, 98, 99, 99, 99, 87, 96, 97, 98, 98, 70, 88, 92, 93, 94, 71, 89, 92, 94, 95, 87, 96, 97, 98, 98, 31, 67, 75, 79, 81, 86, 95, 97, 97, 98, 88, 96, 98, 98, 98, 72, 89, 93, 94, 95, 98, 99, 99, 99, 99, 87, 96, 97, 98, 98, 68, 87, 91, 93, 94, 69, 88, 91, 93, 94, 92, 98, 98, 99, 99, 95, 99, 99, 99, 99, 85, 95, 96, 97, 98, 90, 97, 98, 98, 99, 71, 89, 92, 94, 94, 95, 99, 99, 99, 99, 90, 97, 98, 98, 99, 61, 85, 89, 91, 92, 78, 92, 94, 95, 96, 57, 82, 87, 89, 90, 37, 71, 79, 82, 84, 63, 85, 89, 91, 92, 95, 99, 99, 99, 99, 78, 92, 94, 95, 96, 85, 95, 96, 97, 97, 87, 96, 97, 98, 98, 70, 88, 92, 93, 94, 63, 86, 89, 91, 92, 74, 90, 93, 94, 95, 97, 99, 99, 99, 99, 73, 90, 93, 94, 95, 99, 99, 99, 99, 99, 95, 99, 99, 99, 99, 51, 79, 85, 87, 88, 87, 96, 97, 98, 98, 96, 99, 99, 99, 99, 74, 90, 93, 94, 95, 96, 99, 99, 99, 99, 76, 91, 94, 95, 96, 93, 98, 99, 99, 99, 99, 99, 99, 99, 99, 44, 75, 81, 85, 86, 99, 99, 99, 99, 99, 83, 94, 96, 97, 97, 90, 97, 98, 98, 99, 76, 91, 94, 95, 95, 61, 85, 89, 91, 92, 79, 92, 95, 96, 96, 80, 93, 95, 96, 96, 97, 99, 99, 99, 99, 72, 89, 93, 94, 95, 95, 98, 99, 99, 99, 84, 94, 96, 97, 97, 99, 99, 99, 99, 99, 91, 97, 98, 99, 99, 60, 84, 88, 90, 91, 81, 93, 95, 96, 97, 81, 93, 95, 96, 97, 89, 96, 98, 98, 98, 63, 86, 89, 91, 92, 92, 98, 98, 99, 99, 97, 99, 99, 99, 99, 81, 93, 95, 96, 97, 92, 98, 99, 99, 99, 68, 87, 91, 93, 94, 95, 99, 99, 99, 99, 67, 87, 91, 92, 93, 78, 92, 95, 96, 96, 99, 99, 99, 99, 99, 81, 93, 95, 96, 97, 75, 91, 94, 95, 95, 48, 78, 84, 86, 88, 67, 87, 91, 92, 93, 70, 88, 92, 93, 94, 84, 94, 96, 97, 97, 99, 99, 99, 99, 99, 65, 86, 90, 92, 93, 99, 99, 99, 99, 99, 81, 93, 95, 96, 97, 81, 93, 95, 96, 97, 97, 99, 99, 99, 99, 99, 99, 99, 99, 99, 80, 93, 95, 96, 97, 84, 95, 96, 97, 97, 91, 97, 98, 99, 99, 99, 99, 99, 99, 99, 77, 92, 94, 95, 96, 97, 99, 99, 99, 99, 99, 99, 99, 99, 99, 92, 98, 98, 99, 99, 91, 97, 98, 99, 99, 95, 99, 99, 99, 99, 99, 99, 99, 99, 99, 67, 87, 91, 93, 93, 87, 96, 97, 98, 98, 93, 98, 99, 99, 99, 82, 94, 96, 97, 97, 93, 98, 99, 99, 99, 61, 84, 88, 90, 92, 84, 95, 96, 97, 97, 77, 92, 94, 95, 96, 39, 72, 80, 82, 85, 89, 97, 98, 98, 98, 94, 98, 99, 99, 99, 37, 71, 78, 81, 84, 80, 93, 95, 96, 96, 35, 70, 77, 81, 83, 41, 74, 81, 83, 85, 73, 90, 93, 94, 95, 99, 99, 99, 99, 99, 78, 92, 94, 96, 96, 93, 98, 99, 99, 99, 97, 99, 99, 99, 99, 89, 96, 98, 98, 98, 95, 99, 99, 99, 99, 69, 88, 91, 93, 94, 49, 78, 84, 86, 88, 99, 99, 99, 99, 99, 93, 98, 99, 99, 99, 92, 98, 99, 99, 99, 97, 99, 99, 99, 99, 45, 76, 82, 86, 86, 93, 98, 99, 99, 99, 89, 97, 98, 98, 98, 99, 99, 99, 99, 99, 93, 98, 99, 99, 99, 57, 82, 87, 89, 91, 42, 74, 81, 84, 86, 76, 91, 94, 95, 96, 91, 97, 98, 99, 99, 99, 99, 99, 99, 99, 60, 84, 88, 90, 91, 96, 99, 99, 99, 99, 92, 98, 99, 99, 99, 81, 93, 95, 96, 97, 93, 98, 99, 99, 99, 61, 85, 89, 91, 92, 83, 94, 96, 97, 97, 84, 95, 96, 97, 97, 54, 81, 86, 88, 90, 53, 80, 86, 88, 89, 93, 98, 99, 99, 99, 99, 99, 99, 99, 99, 75, 91, 93, 95, 95, 92, 98, 99, 99, 99, 99, 99, 99, 99, 99, 98, 99, 99, 99, 99, 86, 96, 97, 98, 98, 97, 99, 99, 99, 99, 94, 98, 99, 99, 99, 70, 88, 92, 93, 94, 86, 95, 97, 97, 98, 97, 99, 99, 99, 99, 94, 98, 99, 99, 99, 50, 79, 85, 86, 88, 99, 99, 99, 99, 99, 77, 91, 94, 95, 96, 77, 91, 94, 95, 96, 74, 90, 93, 94, 95, 80, 93, 95, 96, 96, 67, 87, 91, 92, 93, 64, 86, 90, 91, 92, 77, 91, 94, 95, 96, 95, 99, 99, 99, 99, 71, 89, 92, 94, 94, 92, 98, 98, 99, 99, 62, 85, 89, 91, 92, 81, 93, 95, 96, 97, 98, 99, 99, 99, 99]);
precedence  = array2d(JOBS,MACHINES,[3, 4, 6, 8, 2, 1, 5, 9, 7, 0, 8, 7, 4, 2, 6, 3, 1, 0, 5, 9, 1, 9, 0, 4, 7, 3, 6, 5, 2, 8, 9, 7, 2, 3, 4, 0, 1, 8, 6, 5, 3, 9, 5, 4, 2, 8, 0, 1, 7, 6, 9, 8, 4, 7, 5, 1, 0, 6, 2, 3, 6, 0, 4, 8, 3, 1, 5, 2, 7, 9, 4, 7, 1, 2, 6, 9, 0, 8, 3, 5, 5, 6, 1, 8, 2, 0, 4, 7, 9, 3, 6, 5, 4, 0, 9, 8, 7, 2, 3, 1, 3, 0, 8, 9, 2, 6, 4, 5, 1, 7, 6, 3, 2, 5, 4, 8, 9, 0, 1, 7, 0, 9, 3, 6, 8, 7, 5, 4, 2, 1, 2, 0, 7, 5, 4, 1, 6, 8, 3, 9, 5, 7, 6, 8, 2, 1, 0, 4, 3, 9, 4, 9, 5, 2, 3, 1, 8, 6, 0, 7, 7, 0, 3, 2, 1, 5, 8, 4, 6, 9, 8, 9, 4, 0, 1, 6, 2, 7, 5, 3, 3, 7, 5, 1, 0, 6, 2, 9, 4, 8, 2, 4, 6, 7, 0, 1, 5, 3, 8, 9]);
releaseDate = array2d(JOBS,MACHINES,[122, 125, 158, 179, 115, 69, 136, 186, 163, 50, 142, 134, 99, 78, 125, 95, 77, 40, 118, 143, 31, 99, 30, 52, 91, 43, 66, 62, 42, 96, 139, 129, 52, 56, 87, 40, 42, 138, 126, 91, 5, 76, 36, 32, 3, 66, 0, 1, 50, 37, 132, 107, 72, 106, 86, 43, 40, 98, 48, 62, 153, 60, 150, 156, 84, 71, 152, 74, 155, 157, 60, 74, 26, 54, 67, 92, 10, 75, 55, 61, 103, 104, 82, 120, 84, 80, 89, 115, 124, 85, 51, 47, 46, 20, 84, 65, 63, 32, 41, 30, 58, 40, 88, 118, 50, 76, 64, 65, 49, 83, 55, 38, 37, 45, 39, 62, 65, 30, 36, 61, 50, 94, 74, 80, 85, 82, 79, 75, 73, 54, 144, 100, 189, 182, 180, 107, 184, 211, 149, 250, 76, 78, 77, 86, 55, 54, 40, 58, 57, 87, 106, 160, 107, 101, 102, 100, 159, 136, 50, 153, 104, 50, 53, 52, 51, 93, 106, 68, 100, 107, 81, 97, 75, 60, 61, 79, 72, 80, 76, 74, 73, 105, 81, 71, 70, 85, 72, 120, 74, 113, 112, 130, 147, 159, 100, 101, 145, 117, 170, 188]);
dueDate     = array2d(JOBS,MACHINES,[125, 136, 163, 186, 122, 115, 158, 189, 179, 69, 143, 142, 118, 95, 134, 99, 78, 77, 125, 144, 42, 149, 31, 62, 96, 52, 91, 66, 43, 99, 153, 138, 56, 87, 91, 42, 52, 139, 129, 126, 32, 78, 37, 36, 5, 76, 1, 3, 66, 50, 153, 132, 86, 107, 98, 48, 43, 106, 62, 72, 155, 71, 152, 157, 150, 74, 153, 84, 156, 163, 61, 75, 54, 55, 74, 95, 26, 92, 60, 67, 104, 115, 84, 124, 85, 82, 103, 120, 131, 89, 63, 51, 47, 30, 85, 84, 65, 41, 46, 32, 64, 49, 118, 128, 58, 83, 65, 76, 50, 88, 61, 39, 38, 55, 45, 65, 67, 36, 37, 62, 54, 96, 75, 82, 94, 85, 80, 79, 74, 73, 149, 107, 211, 184, 182, 144, 189, 250, 180, 257, 77, 86, 78, 87, 57, 55, 54, 76, 58, 88, 107, 161, 136, 102, 106, 101, 160, 153, 100, 159, 106, 51, 68, 53, 52, 100, 107, 93, 104, 116, 97, 130, 76, 61, 72, 80, 74, 81, 79, 75, 74, 113, 85, 72, 71, 105, 73, 129, 81, 120, 117, 145, 159, 170, 101, 112, 147, 130, 188, 189]);